(set-info :smt-lib-version 2.6)
(set-logic QF_UFLRA)
(set-info :source |
MathSat group

|)
(set-info :category "random")
(set-info :status unsat)
(declare-fun x0 () Real)
(declare-fun x1 () Real)
(declare-fun x2 () Real)
(declare-fun x3 () Real)
(declare-fun x4 () Real)
(declare-fun x5 () Real)
(declare-fun x6 () Real)
(declare-fun x7 () Real)
(declare-fun x8 () Real)
(declare-fun x9 () Real)
(declare-fun x10 () Real)
(declare-fun x11 () Real)
(declare-fun x12 () Real)
(declare-fun x13 () Real)
(declare-fun x14 () Real)
(declare-fun x15 () Real)
(declare-fun x16 () Real)
(declare-fun x17 () Real)
(declare-fun x18 () Real)
(declare-fun x19 () Real)
(declare-fun x20 () Real)
(declare-fun x21 () Real)
(declare-fun x22 () Real)
(declare-fun x23 () Real)
(declare-fun x24 () Real)
(declare-fun x25 () Real)
(declare-fun x26 () Real)
(declare-fun x27 () Real)
(declare-fun x28 () Real)
(declare-fun x29 () Real)
(declare-fun f0_1 (Real) Real)
(declare-fun f0_2 (Real Real) Real)
(declare-fun f0_3 (Real Real Real) Real)
(declare-fun f0_4 (Real Real Real Real) Real)
(declare-fun P0 () Bool)
(declare-fun P1 () Bool)
(declare-fun P2 () Bool)
(declare-fun P3 () Bool)
(declare-fun P4 () Bool)
(declare-fun P5 () Bool)
(declare-fun P6 () Bool)
(declare-fun P7 () Bool)
(declare-fun P8 () Bool)
(declare-fun P9 () Bool)
(declare-fun P10 () Bool)
(declare-fun P11 () Bool)
(declare-fun P12 () Bool)
(declare-fun P13 () Bool)
(declare-fun P14 () Bool)
(declare-fun P15 () Bool)
(declare-fun P16 () Bool)
(declare-fun P17 () Bool)
(declare-fun P18 () Bool)
(declare-fun P19 () Bool)
(declare-fun P20 () Bool)
(declare-fun P21 () Bool)
(declare-fun P22 () Bool)
(declare-fun P23 () Bool)
(declare-fun P24 () Bool)
(declare-fun P25 () Bool)
(declare-fun P26 () Bool)
(declare-fun P27 () Bool)
(declare-fun P28 () Bool)
(declare-fun P29 () Bool)
(assert (let ((?v_57 (* 10 x16))) (let ((?v_12 (distinct (- (+ ?v_57 (* 21 x17)) (* 2 x15)) 23)) (?v_11 (distinct (- (- (* 12 x6) (* 37 x4)) (* 39 x2)) 30)) (?v_158 (< (- (+ (* 16 x20) (* 22 x13)) (* 19 x27)) 16)) (?v_50 (* 13 x14)) (?v_140 (<= (- (+ (* 30 x20) (* 5 x4)) (* 9 x5)) 0)) (?v_59 (distinct (+ (- (* 20 x5) (* 21 x12)) (* 8 x26)) 40))) (let ((?v_73 (<= (- (+ (* 13 x23) ?v_50) (* 2 x29)) 37)) (?v_24 (f0_1 x10)) (?v_46 (f0_1 x26))) (let ((?v_69 (= ?v_24 ?v_46)) (?v_72 (distinct x24 (f0_1 x2))) (?v_87 (distinct (f0_2 x19 x24) (f0_1 x27))) (?v_25 (f0_1 x6))) (let ((?v_41 (= x19 ?v_25)) (?v_30 (= ?v_24 ?v_25)) (?v_95 (distinct x18 x22)) (?v_75 (distinct x9 (f0_2 x24 x4))) (?v_19 (f0_1 x14))) (let ((?v_13 (= ?v_19 x6)) (?v_80 (distinct (f0_2 x24 x19) x17)) (?v_9 (= x8 (f0_2 x8 x7))) (?v_136 (distinct x24 (f0_2 x10 x15))) (?v_38 (= (f0_2 x4 x26) (f0_2 x12 x25))) (?v_1 (= (f0_2 x7 x4) x25)) (?v_27 (distinct (f0_1 x29) (f0_2 x3 x2))) (?v_0 (f0_1 x21))) (let ((?v_21 (= (f0_1 x8) ?v_0)) (?v_29 (= x23 (f0_2 x24 x2))) (?v_31 (= (f0_2 x25 x0) ?v_0)) (?v_156 (= x29 (f0_1 x7))) (?v_4 (= x11 (f0_1 x22))) (?v_119 (= x10 ?v_0)) (?v_63 (distinct x24 (f0_1 x15))) (?v_139 (= ?v_46 (f0_2 x8 x28))) (?v_62 (= ?v_19 (f0_2 x13 x25))) (?v_45 (distinct (f0_2 x6 x13) (f0_2 x23 x25))) (?v_33 (= (f0_1 x5) (f0_1 x13))) (?v_47 (= x10 x20)) (?v_3 (= (f0_1 x24) (f0_2 x20 x25))) (?v_32 (distinct ?v_19 (f0_2 x19 x18))) (?v_55 (distinct (f0_1 x23) x13)) (?v_92 (= x24 x9)) (?v_44 (not P22)) (?v_48 (not ?v_38)) (?v_5 (not P19)) (?v_2 (not ?v_59))) (let ((?v_130 (not ?v_21)) (?v_22 (not ?v_1)) (?v_98 (not P25)) (?v_84 (not P7)) (?v_10 (not P14)) (?v_106 (not P9)) (?v_91 (not P15)) (?v_18 (not ?v_9)) (?v_8 (not P23)) (?v_36 (not P2)) (?v_20 (not ?v_33)) (?v_121 (not P12)) (?v_7 (not ?v_4)) (?v_134 (not P21)) (?v_43 (not ?v_41)) (?v_113 (not P16)) (?v_85 (not P20)) (?v_77 (not ?v_12)) (?v_49 (not ?v_87)) (?v_26 (not P3)) (?v_144 (not P17)) (?v_52 (not ?v_27)) (?v_82 (not ?v_45)) (?v_103 (not ?v_30)) (?v_96 (not P1)) (?v_118 (not ?v_62)) (?v_67 (not ?v_3)) (?v_71 (not ?v_31)) (?v_34 (not P24)) (?v_100 (not P0)) (?v_64 (not ?v_75)) (?v_93 (not ?v_32)) (?v_90 (not P10)) (?v_37 (not P28)) (?v_99 (not P13)) (?v_150 (not ?v_73)) (?v_89 (not ?v_139)) (?v_60 (not ?v_47)) (?v_58 (not ?v_158)) (?v_70 (not ?v_55)) (?v_145 (not P8)) (?v_94 (not P27)) (?v_107 (not ?v_63)) (?v_68 (not P5)) (?v_120 (not P26)) (?v_143 (not ?v_29))) (let ((?v_155 (or P13 ?v_143)) (?v_88 (not P18)) (?v_116 (not P29)) (?v_126 (not ?v_95)) (?v_122 (not ?v_13)) (?v_114 (not ?v_92)) (?v_117 (or ?v_7 ?v_75)) (?v_127 (not P11)) (?v_110 (not ?v_11)) (?v_109 (not ?v_156)) (?v_124 (not P4)) (?v_142 (not ?v_80)) (?v_132 (not ?v_119)) (?v_125 (not P6)) (?v_153 (not ?v_136)) (?v_148 (not ?v_72)) (?v_152 (not ?v_140)) (?v_154 (not ?v_69)) (?v_79 (< (- (- 0 (* 9 x20)) (* 5 x25)) 35)) (?v_54 (< (+ (- (* 11 x1) x9) (* 18 x21)) 11)) (?v_149 (<= (+ (* 13 x24) ?v_57 (* 42 x5)) 12))) (let ((?v_151 (not ?v_149)) (?v_102 (not ?v_79)) (?v_147 (not ?v_54)) (?v_23 (distinct (- (- (* (- 23) x25) (* 24 x7)) (* 11 x2)) 36)) (?v_112 (< (+ (* (- 18) x21) (* 9 x2) x17) (- 19)))) (let ((?v_104 (not ?v_112)) (?v_61 (<= (- (+ (* 2 x9) (* 23 x5)) x24) (- 15)))) (let ((?v_35 (not ?v_61)) (?v_108 (<= (+ (* (- 34) x24) (* 34 x9) (* 42 x14)) 10))) (let ((?v_86 (not ?v_108)) (?v_16 (<= (- (+ (* (- 33) x14) (* 37 x2)) (* 39 x23)) (- 24))) (?v_78 (<= (- (+ (* 16 x14) (* 20 x2)) 0) (- 30)))) (let ((?v_6 (not ?v_78)) (?v_28 (<= (- (+ (* (- 29) x16) (* 30 x5)) (* 10 x12)) 22))) (let ((?v_115 (not ?v_28)) (?v_15 (<= (- (- (* 11 x6) (* 6 x12)) (* 29 x27)) (- 4))) (?v_17 (< (+ (* (- 26) x17) (* 4 x7) (* 20 x15)) 37))) (let ((?v_14 (not ?v_17)) (?v_53 (= (+ (- (* 21 x20) (* 21 x23)) (* 31 x5)) (- 18)))) (let ((?v_146 (not ?v_53)) (?v_74 (< (- (+ (* (- 22) x24) (* 31 x2)) (* 32 x8)) (- 20))) (?v_42 (not ?v_16)) (?v_56 (< (- (+ (* (- 31) x22) (* 22 x7)) (* 35 x9)) (- 35)))) (let ((?v_40 (not ?v_56)) (?v_135 (not ?v_23)) (?v_81 (= (+ (- (* (- 32) x10) (* 11 x16)) (* 26 x27)) 44)) (?v_65 (< (- (- (* (- 9) x26) (* 38 x19)) (* 34 x15)) 40))) (let ((?v_39 (not ?v_65)) (?v_76 (< (+ (- (* (- 7) x13) (* 6 x26)) (* 36 x5)) (- 41)))) (let ((?v_105 (not ?v_76)) (?v_157 (< (+ (* 12 x17) (* 9 x28)) (- 32)))) (let ((?v_51 (not ?v_157)) (?v_66 (= (- (- (* 12 x7) (* 39 x21)) (* 29 x24)) (- 17))) (?v_123 (< (+ (- 0 (* 9 x23)) ?v_50) (- 29))) (?v_111 (<= (- (+ (* (- 17) x28) (* 27 x19)) (* 20 x24)) 42))) (let ((?v_97 (not ?v_66)) (?v_83 (not ?v_15)) (?v_101 (< (+ (- (* (- 3) x27) (* 4 x26)) (* 34 x19)) (- 42))) (?v_141 (= (- (- (* (- 7) x20) (* 20 x3)) (* 32 x14)) 13))) (let ((?v_138 (not ?v_141)) (?v_137 (not ?v_111)) (?v_131 (not ?v_81)) (?v_128 (not ?v_74)) (?v_133 (not ?v_123)) (?v_129 (not ?v_101))) (and (and (and (and (and (and (and (and (and (and (and (and (and (and (and (and (and (and (and (and (and (and (and (and (and (and (and (and (and (and (and (and (and (and (and (and (and (and (and (and (and (and (and (and (and (and (and (and (and (and (and (and (and (and (and (and (and (and (and (and (and (and (and (and (and (and (and (and (and (and (and (and (and (and (and (and (and (and (and (and (and (and (and (and (and (and (and (and (and (and (and (and (and (and (and (and (and (and (and (and (and (and (and (and (and (and (and (and (and (and (and (and (and (and (and (and (and (and (and (and (and (and (and (and (and (and (and (and (and (and (and (and (and (and (and (and (and (and (and (and (and (and (and (and (and (and (and (and (and (and (and (and (and (and (and (and (and (and (and (and (and (and (and (and (and (and (and (and (and (and (and (and (and (and (and (and (and (and (and (and (and (and (and (and (and (and (and (and (and (and (and (and (and (and (and (and (and (and (and (and (and (and (and (and (and (and (and (and (and (and (and (and (and (and (and (and (and (and (and (and (and (and (and (and (and (and (and (and (and (and (and (and (and (and (and (and (and (and (and (and (and (and (and (and (and (and (and (and (and (and (and (and (and (and (and (and (and (and (and (and (and (and (and (and (and (and (and (and (and (and (and (and (and (and (and (and (and (and (and (and (and (and (and (and (and (and (and (and (and (and (and (and (and (and (and (and (and (and (and (and (and (and (and (and (and (and (and (and (and (and (and (and (and (and (and (and (and (and (and (and (and (and (and (and (and (and (and (and (and (and (and (and (and (and (and (and (and (and (and (and (and (and (and (and (and (and (and (and (and (and (and (and (and (and (and (and (and (and (and (and (and (and (and (and (and (and (and (and (and (and (and (and (and (and (and (and (and (and (and (and (and (and (and (and (and (and (and (and (and (and (and (and (and (and (and (and (and (and (and (and (and (and (and (and (and (and (and (and (and (and (and (and (and (and (and (and (and (and (and (and (and (and (and (and (and (and (and (and (and (and (and (and (and (and (and (and (and (and (and (and (and (and (and (and (and (and (and (and (and (or (or ?v_44 ?v_48) ?v_31) (or (or P24 P8) ?v_11)) (or (or ?v_5 ?v_2) ?v_130)) (or (or ?v_22 ?v_98) P8)) (or (or ?v_1 ?v_2) ?v_84)) (or (or ?v_10 ?v_106) ?v_91)) (or (or ?v_18 ?v_55) ?v_23)) (or (or ?v_3 ?v_72) ?v_29)) (or (or ?v_104 ?v_8) ?v_36)) (or (or P15 ?v_35) ?v_80)) (or (or ?v_86 ?v_20) ?v_3)) (or (or ?v_121 ?v_7) P9)) (or (or ?v_134 ?v_43) ?v_16)) (or (or ?v_6 ?v_4) ?v_113)) (or (or ?v_4 ?v_5) ?v_115)) (or (or P18 ?v_13) ?v_119)) (or (or ?v_15 ?v_6) P25)) (or (or P23 ?v_7) ?v_79)) (or (or ?v_47 ?v_14) ?v_85)) (or (or ?v_77 ?v_8) ?v_9)) (or (or ?v_3 ?v_146) ?v_10)) (or (or ?v_140 ?v_11) ?v_12)) (or (or ?v_74 ?v_49) ?v_69)) (or (or ?v_13 ?v_11) ?v_26)) (or (or ?v_14 P10) ?v_144)) (or (or ?v_52 ?v_6) ?v_15)) (or (or ?v_136 ?v_8) ?v_42)) (or (or ?v_12 ?v_54) ?v_2)) (or (or P9 ?v_17) ?v_82)) (or (or ?v_18 ?v_32) P18)) (or (or P0 ?v_40) ?v_8)) (or (or ?v_20 ?v_21) ?v_22)) (or (or ?v_135 ?v_103) ?v_26)) (or (or ?v_27 ?v_2) P27)) (or (or ?v_96 ?v_81) ?v_118)) (or (or ?v_28 ?v_67) ?v_39)) (or (or ?v_29 ?v_27) ?v_30)) (or (or ?v_71 ?v_34) ?v_100)) (or (or ?v_64 ?v_9) ?v_6)) (or (or ?v_93 ?v_90) ?v_33)) (or (or ?v_92 ?v_37) ?v_34)) (or (or ?v_35 ?v_3) ?v_22)) (or (or ?v_99 ?v_16) ?v_150)) (or (or ?v_36 ?v_105) ?v_37)) (or (or ?v_63 ?v_51) ?v_6)) (or (or ?v_1 ?v_6) ?v_38)) (or (or ?v_35 ?v_39) ?v_40)) (or (or ?v_41 ?v_30) ?v_42)) (or (or ?v_43 ?v_15) P8)) (or (or ?v_40 ?v_30) ?v_44)) (or (or ?v_28 ?v_45) ?v_38)) (or (or P20 ?v_3) P17)) (or (or ?v_66 P17) ?v_5)) (or (or ?v_89 ?v_60) ?v_16)) (or (or ?v_20 ?v_58) ?v_48)) (or (or ?v_49 ?v_123) P27)) (or (or ?v_51 ?v_52) ?v_44)) (or (or ?v_7 ?v_53) ?v_54)) (or (or P15 ?v_70) ?v_52)) (or (or ?v_14 P21) ?v_41)) (or (or ?v_11 ?v_111) ?v_145)) (or (or ?v_94 P14) ?v_56)) (or (or ?v_151 ?v_26) ?v_58)) (or (or ?v_59 ?v_26) ?v_60)) (or (or P14 ?v_61) ?v_62)) (or (or ?v_107 ?v_32) ?v_64)) (or (or ?v_68 ?v_65) ?v_97)) (or (or ?v_4 ?v_7) ?v_29)) (or (or ?v_120 ?v_67) ?v_68)) (or (or ?v_69 ?v_70) ?v_71)) (or (or P19 ?v_72) ?v_9)) (or (or P13 ?v_45) ?v_83)) (or ?v_155 ?v_88)) (or (or P13 ?v_73) ?v_74)) (or (or ?v_28 ?v_55) P12)) (or (or ?v_71 ?v_16) ?v_75)) (or (or P8 ?v_76) ?v_13)) (or (or ?v_116 P8) ?v_40)) (or (or ?v_77 ?v_78) ?v_102)) (or (or ?v_36 ?v_80) ?v_54)) (or (or ?v_7 P21) ?v_39)) (or (or ?v_15 ?v_10) ?v_55)) (or (or ?v_74 ?v_81) ?v_82)) (or (or ?v_10 ?v_101) P2)) (or (or ?v_80 P15) ?v_83)) (or (or ?v_126 P25) ?v_9)) (or (or ?v_27 P3) ?v_71)) (or (or ?v_84 ?v_28) ?v_122)) (or (or ?v_9 ?v_62) ?v_35)) (or (or P9 P21) ?v_85)) (or (or ?v_21 P8) ?v_26)) (or (or ?v_86 P21) P14)) (or (or ?v_87 ?v_47) P14)) (or (or ?v_88 ?v_1) ?v_89)) (or (or P23 ?v_85) ?v_90)) (or (or ?v_91 P11) ?v_114)) (or ?v_117 ?v_80)) (or (or ?v_93 ?v_89) ?v_94)) (or (or ?v_81 ?v_93) P20)) (or (or ?v_36 ?v_42) ?v_95)) (or (or ?v_90 ?v_96) ?v_33)) (or (or ?v_53 ?v_22) ?v_93)) (or (or ?v_69 ?v_97) ?v_90)) (or (or ?v_78 ?v_127) ?v_51)) (or (or ?v_33 ?v_98) ?v_99)) (or (or ?v_37 ?v_110) ?v_109)) (or (or ?v_55 ?v_81) ?v_63)) (or (or P25 ?v_23) ?v_31)) (or (or ?v_100 ?v_138) ?v_97)) (or (or ?v_95 P23) ?v_16)) (or (or P21 ?v_17) ?v_8)) (or (or ?v_101 ?v_49) ?v_30)) (or (or ?v_102 P23) ?v_13)) (or (or P2 P13) ?v_64)) (or (or ?v_76 ?v_62) ?v_74)) (or (or ?v_103 P15) ?v_99)) (or (or ?v_12 ?v_80) ?v_104)) (or (or ?v_12 ?v_105) ?v_106)) (or (or ?v_61 ?v_34) ?v_107)) (or (or ?v_31 ?v_108) ?v_43)) (or (or ?v_41 ?v_28) ?v_96)) (or (or ?v_109 ?v_65) P22)) (or (or ?v_36 ?v_11) ?v_124)) (or (or ?v_70 ?v_89) ?v_65)) (or (or ?v_60 ?v_110) P17)) (or (or P10 ?v_36) ?v_137)) (or (or ?v_112 ?v_6) ?v_95)) (or (or ?v_32 P23) ?v_113)) (or (or ?v_114 ?v_9) ?v_60)) (or (or ?v_54 ?v_66) ?v_80)) (or (or ?v_142 ?v_115) ?v_110)) (or (or P28 P23) ?v_72)) (or (or ?v_59 ?v_17) ?v_58)) (or (or ?v_86 ?v_131) P16)) (or (or ?v_20 ?v_116) ?v_66)) (or (or ?v_45 ?v_20) ?v_114)) (or (or ?v_5 ?v_67) ?v_43)) (or ?v_117 ?v_90)) (or (or P24 ?v_118) ?v_33)) (or (or P4 ?v_58) ?v_41)) (or (or P16 ?v_119) ?v_42)) (or (or ?v_102 ?v_114) ?v_82)) (or (or ?v_78 ?v_68) ?v_120)) (or (or ?v_58 P11) ?v_118)) (or (or P23 ?v_2) ?v_6)) (or (or P26 ?v_128) ?v_49)) (or (or ?v_15 ?v_121) ?v_119)) (or (or ?v_132 ?v_64) P6)) (or (or P21 ?v_102) P9)) (or (or ?v_20 ?v_122) ?v_40)) (or (or ?v_125 ?v_56) ?v_83)) (or (or ?v_27 ?v_93) ?v_85)) (or (or ?v_61 ?v_9) P0)) (or (or ?v_2 ?v_94) ?v_133)) (or (or ?v_75 ?v_124) ?v_9)) (or (or P22 ?v_69) ?v_88)) (or (or ?v_22 ?v_115) ?v_90)) (or (or ?v_102 P11) ?v_14)) (or (or ?v_61 ?v_28) ?v_125)) (or (or ?v_64 ?v_97) ?v_73)) (or (or ?v_83 ?v_53) ?v_121)) (or (or ?v_64 ?v_59) ?v_14)) (or (or P3 ?v_101) ?v_110)) (or (or ?v_126 ?v_83) ?v_129)) (or (or ?v_61 ?v_127) ?v_84)) (or (or ?v_92 ?v_120) ?v_88)) (or (or ?v_128 ?v_8) ?v_77)) (or (or ?v_75 ?v_49) ?v_28)) (or (or ?v_76 ?v_92) P6)) (or (or ?v_129 ?v_95) ?v_84)) (or (or P19 ?v_130) P20)) (or (or ?v_15 P6) ?v_131)) (or (or ?v_34 ?v_132) P25)) (or (or ?v_133 ?v_15) ?v_147)) (or (or ?v_21 ?v_14) ?v_31)) (or (or ?v_134 ?v_15) ?v_48)) (or (or P17 ?v_75) ?v_16)) (or (or ?v_135 ?v_40) ?v_53)) (or (or P23 P6) ?v_135)) (or (or ?v_59 P6) P26)) (or (or ?v_136 ?v_125) ?v_137)) (or (or ?v_41 ?v_21) ?v_77)) (or (or ?v_138 P6) ?v_133)) (or (or ?v_44 ?v_139) ?v_37)) (or (or ?v_36 ?v_123) ?v_140)) (or (or ?v_15 ?v_135) ?v_110)) (or (or ?v_141 ?v_142) ?v_79)) (or (or P1 ?v_79) ?v_22)) (or (or ?v_10 ?v_70) ?v_143)) (or (or P22 ?v_28) ?v_7)) (or (or ?v_63 ?v_30) ?v_129)) (or (or ?v_112 ?v_97) P9)) (or (or ?v_45 ?v_123) ?v_21)) (or (or P3 ?v_144) P4)) (or (or ?v_58 ?v_54) ?v_114)) (or (or P1 ?v_90) P17)) (or (or ?v_101 ?v_59) ?v_96)) (or (or ?v_65 P27) ?v_145)) (or (or ?v_153 P25) ?v_88)) (or (or ?v_12 ?v_129) ?v_127)) (or (or ?v_72 ?v_61) ?v_60)) (or (or ?v_91 ?v_97) P27)) (or (or ?v_90 P17) ?v_45)) (or (or ?v_107 ?v_28) ?v_22)) (or (or P29 ?v_16) ?v_141)) (or (or P22 ?v_146) ?v_69)) (or (or ?v_21 ?v_38) P17)) (or (or ?v_141 ?v_15) ?v_143)) (or (or ?v_124 ?v_72) ?v_86)) (or (or ?v_51 P7) ?v_114)) (or (or P29 ?v_7) ?v_122)) (or (or ?v_148 ?v_1) P15)) (or (or ?v_2 ?v_7) ?v_147)) (or (or ?v_148 ?v_71) ?v_3)) (or (or ?v_91 ?v_132) ?v_29)) (or (or P6 ?v_63) ?v_61)) (or (or ?v_102 ?v_52) ?v_32)) (or (or ?v_55 ?v_115) ?v_71)) (or (or ?v_106 ?v_128) ?v_71)) (or (or ?v_42 ?v_10) ?v_65)) (or (or ?v_144 ?v_131) ?v_111)) (or (or ?v_149 P1) P25)) (or (or ?v_11 ?v_129) ?v_121)) (or (or ?v_123 ?v_13) ?v_91)) (or (or ?v_98 P26) P13)) (or (or ?v_73 ?v_5) ?v_89)) (or (or ?v_69 P9) ?v_134)) (or (or P13 ?v_47) ?v_149)) (or (or ?v_115 ?v_48) ?v_82)) (or (or P23 ?v_11) ?v_58)) (or (or ?v_98 ?v_51) P5)) (or (or ?v_78 ?v_152) ?v_69)) (or (or ?v_109 ?v_114) ?v_141)) (or (or ?v_42 ?v_11) ?v_142)) (or (or ?v_41 ?v_34) ?v_56)) (or (or P29 ?v_21) P22)) (or (or ?v_90 P28) ?v_2)) (or (or P20 ?v_59) P10)) (or (or ?v_31 ?v_40) ?v_137)) (or (or ?v_114 ?v_37) P6)) (or (or ?v_98 ?v_122) ?v_44)) (or (or ?v_61 ?v_78) ?v_80)) (or (or ?v_93 ?v_36) ?v_59)) (or (or P16 ?v_147) ?v_150)) (or (or ?v_154 ?v_73) ?v_132)) (or (or ?v_95 ?v_103) ?v_137)) (or (or ?v_140 ?v_85) ?v_115)) (or (or ?v_12 ?v_85) P27)) (or (or ?v_95 ?v_97) ?v_128)) (or (or ?v_123 ?v_11) ?v_106)) (or (or P4 ?v_133) ?v_60)) (or (or ?v_27 ?v_5) ?v_21)) (or (or ?v_30 ?v_45) ?v_41)) (or (or ?v_51 ?v_102) P29)) (or (or ?v_17 ?v_126) ?v_31)) (or (or P23 ?v_98) ?v_133)) (or (or ?v_151 ?v_82) ?v_140)) (or (or ?v_67 ?v_150) ?v_31)) (or (or ?v_28 ?v_142) ?v_106)) (or (or ?v_59 P27) ?v_66)) (or (or P1 ?v_121) P18)) (or (or ?v_152 ?v_9) ?v_77)) (or (or ?v_140 ?v_127) ?v_66)) (or (or ?v_66 P27) ?v_70)) (or (or ?v_12 ?v_30) ?v_153)) (or (or ?v_96 P9) P2)) (or (or ?v_88 P24) ?v_130)) (or (or ?v_93 ?v_58) P29)) (or (or ?v_65 ?v_73) P10)) (or (or ?v_145 ?v_26) ?v_82)) (or (or ?v_107 ?v_52) ?v_8)) (or (or P13 ?v_68) P1)) (or (or ?v_71 ?v_118) P1)) (or (or ?v_40 ?v_118) P11)) (or (or ?v_69 ?v_48) ?v_71)) (or (or ?v_97 ?v_99) ?v_12)) (or (or ?v_135 ?v_29) P4)) (or (or ?v_130 ?v_115) ?v_87)) (or (or ?v_104 ?v_82) ?v_48)) (or (or ?v_132 ?v_148) ?v_76)) (or (or ?v_127 ?v_12) ?v_10)) (or (or ?v_146 ?v_129) ?v_108)) (or (or ?v_101 ?v_33) P23)) (or (or P6 ?v_90) ?v_147)) (or (or P14 ?v_22) ?v_16)) (or (or ?v_32 ?v_151) P10)) (or (or ?v_36 ?v_28) ?v_100)) (or (or ?v_98 ?v_33) P12)) (or (or ?v_99 ?v_54) ?v_43)) (or (or ?v_110 ?v_85) ?v_73)) (or (or ?v_98 P11) P20)) (or (or P13 P23) P3)) (or (or ?v_54 ?v_39) ?v_66)) (or (or ?v_28 ?v_36) ?v_15)) (or (or P12 ?v_12) ?v_36)) (or (or P26 ?v_151) ?v_58)) (or (or ?v_89 ?v_54) ?v_47)) (or (or ?v_90 ?v_141) ?v_7)) (or (or P27 ?v_69) ?v_74)) (or (or P9 ?v_151) ?v_82)) (or (or ?v_47 P5) ?v_147)) (or (or ?v_55 ?v_128) ?v_62)) (or (or ?v_89 ?v_80) P15)) (or (or P17 P16) ?v_67)) (or (or ?v_145 ?v_112) ?v_131)) (or (or ?v_56 ?v_5) P2)) (or (or ?v_38 ?v_143) ?v_20)) (or (or P7 ?v_147) ?v_37)) (or (or ?v_154 P10) ?v_94)) (or (or ?v_7 ?v_4) P13)) (or (or ?v_32 ?v_102) ?v_4)) (or (or P23 ?v_124) P6)) (or (or ?v_100 ?v_18) P14)) (or (or ?v_63 ?v_75) P20)) (or (or P24 ?v_64) ?v_2)) (or (or ?v_131 ?v_91) ?v_116)) (or (or ?v_53 ?v_109) ?v_20)) (or (or ?v_59 ?v_126) P18)) (or (or ?v_60 P2) ?v_109)) (or (or ?v_137 ?v_80) ?v_140)) (or ?v_155 ?v_32)) (or (or ?v_69 ?v_80) ?v_54)) (or (or ?v_115 ?v_59) P0)) (or (or ?v_111 ?v_150) ?v_76)) (or (or ?v_105 P25) ?v_143)) (or (or P3 ?v_89) ?v_91)) (or (or ?v_44 ?v_111) ?v_17)) (or (or ?v_108 ?v_36) ?v_22)) (or (or ?v_147 ?v_48) ?v_30)) (or (or ?v_95 ?v_87) ?v_55)) (or (or P16 ?v_148) ?v_95)) (or (or ?v_1 ?v_59) ?v_138)) (or (or ?v_45 P19) ?v_1)) (or (or P10 ?v_23) ?v_12)) (or (or ?v_20 ?v_106) ?v_89)) (or (or ?v_37 P10) ?v_34)) (or (or P13 P2) ?v_127)) (or (or ?v_61 ?v_74) ?v_139)) (or (or ?v_132 ?v_80) ?v_90)) (or (or ?v_109 P14) P25)) (or (or ?v_48 ?v_8) ?v_36)) (or (or P5 ?v_147) ?v_102)) (or (or ?v_111 ?v_45) ?v_32)) (or (or ?v_53 ?v_84) P27)) (or (or ?v_93 P26) ?v_112)) (or (or ?v_12 P5) ?v_150)) (or (or ?v_41 ?v_156) P24)) (or (or ?v_101 ?v_145) ?v_69)) (or (or ?v_23 ?v_143) ?v_112)) (or (or ?v_65 ?v_56) ?v_55)) (or (or ?v_6 P5) ?v_130)) (or (or ?v_90 ?v_115) ?v_88)) (or (or ?v_140 ?v_75) P3)) (or (or ?v_53 ?v_42) ?v_47)) (or (or ?v_4 ?v_15) ?v_119)) (or (or ?v_30 ?v_64) ?v_114)) (or (or ?v_20 ?v_103) ?v_149)) (or (or ?v_143 ?v_18) ?v_36)) (or (or ?v_41 ?v_99) ?v_32)) (or (or ?v_110 P15) ?v_97)) (or (or P1 P1) ?v_56)) (or (or ?v_48 ?v_28) ?v_157)) (or (or ?v_39 ?v_62) ?v_6)) (or (or ?v_101 ?v_70) ?v_65)) (or (or ?v_73 ?v_135) ?v_144)) (or (or P3 ?v_130) ?v_154)) (or (or ?v_39 ?v_113) ?v_58)) (or (or ?v_12 ?v_154) ?v_1)) (or (or ?v_27 ?v_99) ?v_143)) (or (or P24 ?v_87) P17)) (or (or ?v_116 ?v_108) ?v_70)) (or (or ?v_73 ?v_112) ?v_109)) (or (or ?v_132 ?v_88) P11)) (or (or ?v_31 ?v_131) ?v_130)) (or (or ?v_136 P25) ?v_124)) (or (or ?v_73 P19) ?v_10)) (or (or ?v_89 P13) ?v_128)) (or (or ?v_17 ?v_81) ?v_29)) (or (or ?v_115 P16) ?v_45)) (or (or ?v_142 ?v_111) P10)) (or (or ?v_97 ?v_75) ?v_47)) (or (or ?v_112 ?v_8) ?v_128)) (or (or P5 ?v_84) ?v_147)) (or (or P3 ?v_122) P13)) (or (or ?v_85 ?v_148) ?v_106)) (or (or ?v_45 ?v_87) ?v_62)) (or (or ?v_94 ?v_149) ?v_96)) (or (or ?v_20 P15) ?v_42)) (or (or ?v_89 P29) ?v_144)) (or (or ?v_82 ?v_32) ?v_12)) (or (or ?v_30 ?v_41) ?v_95)) (or (or ?v_72 ?v_53) ?v_135)) (or (or P7 ?v_135) P25)) (or (or ?v_14 ?v_11) ?v_70)) (or (or ?v_35 ?v_79) ?v_119)) (or (or ?v_106 ?v_125) ?v_154)) (or (or P23 ?v_6) ?v_14)) (or (or ?v_114 ?v_96) ?v_53)) (or (or ?v_53 P6) ?v_21)) (or (or ?v_125 ?v_29) ?v_44)) (or (or ?v_104 ?v_66) ?v_69)) (or (or ?v_38 ?v_85) ?v_5)) (or (or ?v_3 ?v_33) ?v_4)) (or (or ?v_39 ?v_102) ?v_77)) (or (or ?v_108 ?v_119) ?v_54)) (or (or ?v_122 ?v_66) P2)) (or (or P10 P22) ?v_64)) (or (or ?v_52 ?v_138) P13)) (or (or ?v_75 ?v_136) ?v_66)) (or (or ?v_153 ?v_26) ?v_152)) (or (or ?v_108 ?v_95) ?v_71)) (or (or ?v_136 ?v_78) P20)) (or (or P3 ?v_10) ?v_16)) (or (or ?v_63 ?v_110) ?v_65)) (or (or ?v_17 P17) ?v_38)) (or (or ?v_84 ?v_123) P11)) (or (or ?v_35 ?v_63) ?v_48)) (or (or ?v_75 ?v_118) ?v_7)) (or (or ?v_63 ?v_52) ?v_10)) (or (or ?v_77 ?v_56) P14)) (or (or ?v_43 ?v_11) ?v_16)) (or (or ?v_98 ?v_135) ?v_110)) (or (or ?v_56 ?v_66) ?v_81)) (or (or ?v_120 P5) ?v_135)) (or (or P21 ?v_40) ?v_38)) (or (or ?v_113 ?v_87) ?v_156)) (or (or ?v_135 ?v_129) ?v_81)) (or (or ?v_40 ?v_134) ?v_141)) (or (or ?v_105 ?v_26) ?v_87)) (or (or ?v_126 ?v_76) ?v_100)) (or (or P6 ?v_3) ?v_75)) (or (or P12 ?v_23) P24)) (or (or ?v_122 ?v_31) ?v_94)) (or (or ?v_124 ?v_49) ?v_9)) (or (or ?v_83 ?v_139) ?v_108)) (or (or ?v_69 P1) ?v_79)) (or (or ?v_31 ?v_79) P7)) (or (or ?v_49 ?v_1) ?v_149)) (or (or P20 ?v_130) P0)) (or (or ?v_101 ?v_104) ?v_49)) (or (or ?v_84 ?v_101) ?v_32)) (or (or ?v_99 ?v_132) ?v_145)) (or (or P29 ?v_135) ?v_62)) (or (or ?v_145 ?v_130) ?v_100)) (or (or ?v_28 ?v_40) ?v_11)) (or (or ?v_108 ?v_12) ?v_27)) (or (or ?v_110 P26) ?v_13)) (or (or ?v_73 P6) ?v_58)) (or (or ?v_30 ?v_123) ?v_43)) (or (or P22 ?v_124) ?v_158))))))))))))))))))))))))))
(check-sat)
(exit)
